N = 8;
H = 5;
T = 2;

avail = array3d(1..N, 1..H, 1..T, [6, 3, 8, 4, 9, 10, 8, 2, 10, 5, 8, 1, 9, 4, 3, 8, 7, 4, 8, 4, 8, 7, 4, 10, 2, 4, 1, 0, 7, 0, 6, 3, 7, 8, 0, 1, 3, 9, 8, 2, 1, 3, 0, 7, 4, 7, 9, 4, 10, 3, 1, 1, 0, 2, 4, 10, 8, 0, 10, 2, 10, 10, 1, 5, 9, 10, 3, 4, 10, 2, 7, 8, 9, 4, 6, 7, 1, 0, 1, 6]);

r = array2d(1..H, 1..T, [0, 2, 3, 2, 2, 1, 4, 2, 2, 1]);
